c ****************************************************************
c **     This is a Sat-2003 Competition *SHUFFLED* instance     **
c ****************************************************************
c N.B. This header has been added to the file after the competition
c Please do contact L. Simon for more informations (simon@lri.fr)
c 
c Bench submitted by: Rachel Bevan (McGill University, Montreal, CA)
c              email: rachel@mcb.mcgill.ca
c 
c The original name of this formula was: 
c    handmade/bevan/cnf/bevhcube3.cnf
c Category : HandMade
c The name used during the competition was: 
c     handmade/set103/sat03-1425.cnf
c The random seed used to shuffle this instance  was: 2111486318
c 
c CPU time of solvers on this bench during the first stage 
c  (including Hors-Concours solvers):
c   +------------+--------+--------+
c   | Solver     | Time   | Answer |
c   +------------+--------+--------+
c   | berkmin561 |   0.00 |  UNSAT |
c   | bmsat      |   0.00 |  UNSAT |
c   | funex      |   0.00 |  UNSAT |
c   | marchsp    |   0.00 |  UNSAT |
c   | marchtt    |   0.00 |  UNSAT |
c   | sato       |   0.00 |  UNSAT |
c   | siege      |   0.00 |  UNSAT |
c   | tts        |   0.00 |  UNSAT |
c   | zchaff     |   0.00 |  UNSAT |
c   | forklift   |   0.01 |  UNSAT |
c   | jerusat1a  |   0.01 |  UNSAT |
c   | jerusat1b  |   0.01 |  UNSAT |
c   | jerusat1c  |   0.01 |  UNSAT |
c   | limmat     |   0.01 |  UNSAT |
c   | lsat       |   0.01 |  UNSAT |
c   | oepir      |   0.01 |  UNSAT |
c   | satnik     |   0.01 |  UNSAT |
c   | satzoo0    |   0.01 |  UNSAT |
c   | kcnfs      |   0.02 |  UNSAT |
c   | xqingting  |   0.04 |  UNSAT |
c   | satzoo1    |   0.07 |  UNSAT |
c   | satzilla   |   0.22 |  UNSAT |
c   | opensat    |   0.52 |  UNSAT |
c   | berkmin62  |   0.53 |  UNSAT |
c   | jquest2    |   0.55 |  UNSAT |
c   | farseer    |  20.13 |  UNSAT |
c   | satzilla2  |  30.35 |  UNSAT |
c   | amvo       | 900.00 |   --   |
c   | compsat    | 900.00 |   --   |
c   | marchxq    | 900.00 |   --   |
c   | qingting   | 900.00 |   --   |
c   | saturn     | 900.00 |   --   |
c   | unitwalk   | 900.00 |   --   |
c   +------------+--------+--------+
c
c Old header begins here:
c The random seed used to shuffle this instance was seed=2111486318
p cnf 36 96
3 11 1 0
-34 19 31 0
-22 1 -21 0
-34 -2 13 0
-9 20 -32 0
35 13 15 0
-13 -35 15 0
28 -23 -5 0
-16 -12 -24 0
23 -5 -28 0
-20 -7 8 0
-19 8 2 0
-1 -11 3 0
-34 2 -13 0
16 -26 30 0
-10 -15 -29 0
9 20 32 0
24 -23 -18 0
28 36 4 0
-6 21 -4 0
27 9 -7 0
22 -6 31 0
-29 35 -25 0
-7 20 -8 0
-14 27 -26 0
6 -31 22 0
-15 35 -13 0
-21 -1 22 0
-11 1 -3 0
-9 -27 -7 0
21 4 6 0
20 8 7 0
-9 7 27 0
-35 -15 13 0
-11 33 -17 0
15 10 -29 0
-36 4 -28 0
-21 4 -6 0
18 -12 17 0
-2 8 19 0
31 6 -22 0
-19 -31 -34 0
16 -12 24 0
9 7 -27 0
-18 -24 23 0
-2 -19 -8 0
36 -4 -28 0
16 12 -24 0
-6 -31 -22 0
13 34 2 0
-20 -32 9 0
26 -16 30 0
-19 31 34 0
32 -3 33 0
11 -1 -3 0
26 14 27 0
14 30 -10 0
33 -32 3 0
-9 -20 32 0
-35 -25 29 0
-35 -29 25 0
29 35 25 0
-14 10 30 0
-17 -12 -18 0
21 22 1 0
26 -14 -27 0
28 -4 -36 0
10 -30 14 0
28 5 23 0
29 10 -15 0
36 -25 5 0
-17 18 12 0
-5 -36 -25 0
-13 -2 34 0
26 16 -30 0
14 -27 -26 0
-36 25 5 0
25 36 -5 0
6 -21 -4 0
-32 -33 -3 0
18 23 24 0
-28 5 -23 0
17 -18 12 0
-8 7 -20 0
-1 -22 21 0
11 -33 -17 0
12 -16 24 0
29 -10 15 0
-26 -30 -16 0
11 17 33 0
-23 -24 18 0
-11 17 -33 0
19 -8 2 0
-33 3 32 0
-30 -14 -10 0
34 -31 19 0
